p tw 100 16501 2 
1 3 
1 4 
1 5 
1 6 
1 7 
1 8 
1 9 
1 10 
1 11 
1 12 
1 13 
1 14 
1 15 
1 16 
1 17 
1 18 
1 19 
1 20 
1 21 
1 22 
1 23 
1 33 
1 42 
1 47 
1 53 
1 66 
1 77 
1 80 
1 83 
1 91 
1 97 
1 100 
2 3 
2 4 
2 5 
2 6 
2 7 
2 8 
2 9 
2 10 
2 11 
2 12 
2 13 
2 16 
2 24 
2 25 
2 26 
2 27 
2 28 
2 29 
2 30 
2 31 
2 32 
2 33 
2 34 
2 43 
2 52 
2 53 
2 54 
2 55 
2 56 
2 57 
2 58 
2 59 
3 4 
3 5 
3 6 
3 7 
3 8 
3 9 
3 10 
3 11 
3 12 
3 14 
3 15 
3 24 
3 25 
3 34 
3 35 
3 36 
3 37 
3 38 
3 39 
3 40 
3 41 
3 42 
3 43 
3 44 
3 45 
3 46 
3 47 
3 48 
3 49 
3 50 
3 51 
4 5 
4 6 
4 7 
4 8 
4 9 
4 10 
4 11 
4 12 
4 14 
4 22 
4 26 
4 32 
4 41 
4 44 
4 50 
4 52 
4 58 
4 60 
4 61 
4 62 
4 63 
4 64 
4 65 
4 66 
4 69 
4 74 
4 80 
4 84 
4 87 
4 92 
5 6 
5 7 
5 8 
5 9 
5 10 
5 11 
5 12 
5 17 
5 23 
5 27 
5 31 
5 35 
5 36 
5 45 
5 48 
5 53 
5 58 
5 60 
5 63 
5 67 
5 68 
5 69 
5 70 
5 71 
5 82 
5 85 
5 96 
5 97 
5 99 
6 7 
6 8 
6 9 
6 10 
6 11 
6 12 
6 18 
6 23 
6 25 
6 33 
6 36 
6 39 
6 50 
6 52 
6 57 
6 65 
6 67 
6 70 
6 72 
6 73 
6 74 
6 75 
6 76 
6 77 
6 81 
6 86 
6 88 
6 95 
7 8 
7 9 
7 10 
7 11 
7 12 
7 17 
7 21 
7 26 
7 28 
7 34 
7 42 
7 43 
7 46 
7 61 
7 70 
7 72 
7 73 
7 78 
7 79 
7 80 
7 81 
7 82 
7 85 
7 90 
7 92 
7 93 
7 94 
8 9 
8 10 
8 11 
8 12 
8 19 
8 20 
8 29 
8 30 
8 37 
8 38 
8 45 
8 47 
8 54 
8 55 
8 62 
8 63 
8 68 
8 72 
8 73 
8 78 
8 83 
8 84 
8 85 
8 86 
8 87 
8 88 
9 10 
9 11 
9 12 
9 19 
9 20 
9 24 
9 29 
9 39 
9 48 
9 49 
9 56 
9 59 
9 60 
9 65 
9 71 
9 74 
9 77 
9 79 
9 82 
9 87 
9 89 
9 90 
9 91 
9 94 
9 98 
10 11 
10 12 
10 18 
10 21 
10 31 
10 32 
10 38 
10 40 
10 49 
10 51 
10 54 
10 57 
10 61 
10 64 
10 69 
10 71 
10 75 
10 78 
10 83 
10 89 
10 91 
10 93 
10 95 
10 96 
11 12 
11 15 
11 22 
11 27 
11 30 
11 37 
11 40 
11 44 
11 55 
11 59 
11 62 
11 67 
11 76 
11 79 
11 81 
11 89 
11 92 
11 93 
11 95 
11 97 
11 98 
11 99 
11 100 
12 13 
12 16 
12 28 
12 35 
12 41 
12 46 
12 51 
12 56 
12 64 
12 66 
12 68 
12 75 
12 76 
12 84 
12 86 
12 88 
12 90 
12 94 
12 96 
12 98 
12 99 
12 100 
13 14 
13 15 
13 16 
13 17 
13 18 
13 19 
13 20 
13 21 
13 22 
13 23 
13 24 
13 25 
13 26 
13 27 
13 28 
13 29 
13 30 
13 31 
13 32 
13 33 
13 41 
13 46 
13 56 
13 64 
13 68 
13 76 
13 86 
13 94 
13 96 
13 100 
14 15 
14 16 
14 17 
14 18 
14 19 
14 20 
14 21 
14 22 
14 23 
14 24 
14 26 
14 34 
14 35 
14 36 
14 37 
14 38 
14 39 
14 40 
14 41 
14 42 
14 44 
14 52 
14 60 
14 61 
14 62 
14 63 
14 64 
14 65 
14 66 
15 16 
15 17 
15 18 
15 19 
15 20 
15 21 
15 22 
15 23 
15 25 
15 30 
15 40 
15 43 
15 44 
15 45 
15 46 
15 47 
15 48 
15 49 
15 50 
15 51 
15 59 
15 62 
15 67 
15 79 
15 92 
15 95 
15 99 
15 100 
16 17 
16 18 
16 19 
16 20 
16 21 
16 22 
16 23 
16 28 
16 34 
16 35 
16 43 
16 51 
16 52 
16 53 
16 54 
16 55 
16 56 
16 57 
16 58 
16 59 
16 66 
16 75 
16 84 
16 88 
16 90 
16 98 
16 99 
17 18 
17 19 
17 20 
17 21 
17 22 
17 23 
17 27 
17 28 
17 34 
17 35 
17 45 
17 46 
17 53 
17 60 
17 61 
17 67 
17 68 
17 69 
17 70 
17 71 
17 72 
17 78 
17 79 
17 80 
17 81 
17 82 
18 19 
18 20 
18 21 
18 22 
18 23 
18 25 
18 32 
18 36 
18 38 
18 51 
18 52 
18 54 
18 61 
18 67 
18 71 
18 72 
18 73 
18 74 
18 75 
18 76 
18 77 
18 91 
18 93 
18 95 
18 96 
19 20 
19 21 
19 22 
19 23 
19 24 
19 29 
19 37 
19 45 
19 49 
19 54 
19 59 
19 62 
19 65 
19 71 
19 72 
19 77 
19 82 
19 83 
19 84 
19 85 
19 86 
19 87 
19 94 
19 98 
20 21 
20 22 
20 23 
20 29 
20 30 
20 38 
20 39 
20 47 
20 48 
20 55 
20 56 
20 60 
20 63 
20 68 
20 73 
20 74 
20 78 
20 79 
20 87 
20 88 
20 89 
20 90 
20 91 
21 22 
21 23 
21 26 
21 31 
21 40 
21 42 
21 43 
21 49 
21 57 
21 64 
21 69 
21 70 
21 73 
21 75 
21 78 
21 83 
21 85 
21 89 
21 90 
21 92 
21 93 
21 94 
22 23 
22 27 
22 32 
22 37 
22 41 
22 44 
22 50 
22 55 
22 58 
22 69 
22 74 
22 76 
22 80 
22 81 
22 84 
22 87 
22 89 
22 92 
22 93 
22 97 
22 98 
23 31 
23 33 
23 36 
23 39 
23 48 
23 50 
23 57 
23 58 
23 63 
23 65 
23 70 
23 81 
23 82 
23 85 
23 86 
23 88 
23 95 
23 96 
23 97 
23 99 
24 25 
24 26 
24 27 
24 28 
24 29 
24 30 
24 31 
24 32 
24 33 
24 34 
24 35 
24 36 
24 37 
24 38 
24 39 
24 40 
24 41 
24 42 
24 49 
24 59 
24 65 
24 71 
24 77 
24 82 
24 87 
24 94 
24 98 
25 26 
25 27 
25 28 
25 29 
25 30 
25 31 
25 32 
25 33 
25 36 
25 43 
25 44 
25 45 
25 46 
25 47 
25 48 
25 49 
25 50 
25 51 
25 52 
25 67 
25 72 
25 73 
25 74 
25 75 
25 76 
25 77 
26 27 
26 28 
26 29 
26 30 
26 31 
26 32 
26 33 
26 42 
26 43 
26 44 
26 52 
26 60 
26 61 
26 62 
26 63 
26 64 
26 65 
26 66 
26 70 
26 73 
26 85 
26 90 
26 92 
26 93 
26 94 
27 28 
27 29 
27 30 
27 31 
27 32 
27 33 
27 35 
27 37 
27 44 
27 45 
27 53 
27 55 
27 60 
27 67 
27 68 
27 69 
27 70 
27 71 
27 76 
27 81 
27 89 
27 93 
27 97 
27 98 
28 29 
28 30 
28 31 
28 32 
28 33 
28 34 
28 35 
28 46 
28 51 
28 61 
28 66 
28 72 
28 75 
28 78 
28 79 
28 80 
28 81 
28 82 
28 84 
28 88 
28 90 
28 98 
28 99 
29 30 
29 31 
29 32 
29 33 
29 37 
29 39 
29 45 
29 48 
29 54 
29 56 
29 60 
29 62 
29 72 
29 74 
29 79 
29 83 
29 84 
29 85 
29 86 
29 89 
29 90 
29 91 
30 31 
30 32 
30 33 
30 38 
30 40 
30 47 
30 55 
30 59 
30 62 
30 63 
30 67 
30 68 
30 73 
30 78 
30 79 
30 87 
30 88 
30 92 
30 95 
30 99 
30 100 
31 32 
31 33 
31 36 
31 40 
31 48 
31 49 
31 57 
31 58 
31 63 
31 64 
31 69 
31 75 
31 78 
31 82 
31 83 
31 85 
31 89 
31 96 
31 97 
31 99 
32 33 
32 38 
32 41 
32 50 
32 51 
32 54 
32 58 
32 61 
32 69 
32 71 
32 74 
32 80 
32 84 
32 87 
32 91 
32 92 
32 93 
32 95 
32 96 
33 39 
33 42 
33 47 
33 50 
33 53 
33 57 
33 65 
33 66 
33 70 
33 77 
33 80 
33 81 
33 83 
33 86 
33 88 
33 91 
33 95 
33 97 
33 100 
34 35 
34 36 
34 37 
34 38 
34 39 
34 40 
34 41 
34 42 
34 43 
34 46 
34 52 
34 53 
34 54 
34 55 
34 56 
34 57 
34 58 
34 59 
34 61 
34 72 
34 78 
34 79 
34 80 
34 81 
34 82 
35 36 
35 37 
35 38 
35 39 
35 40 
35 41 
35 42 
35 45 
35 51 
35 53 
35 60 
35 66 
35 67 
35 68 
35 69 
35 70 
35 71 
35 75 
35 84 
35 88 
35 90 
35 98 
35 99 
36 37 
36 38 
36 39 
36 40 
36 41 
36 42 
36 48 
36 52 
36 58 
36 63 
36 67 
36 72 
36 73 
36 74 
36 75 
36 76 
36 77 
36 82 
36 85 
36 96 
36 97 
36 99 
37 38 
37 39 
37 40 
37 41 
37 42 
37 44 
37 45 
37 54 
37 55 
37 62 
37 72 
37 76 
37 81 
37 83 
37 84 
37 85 
37 86 
37 89 
37 93 
37 97 
37 98 
38 39 
38 40 
38 41 
38 42 
38 47 
38 51 
38 54 
38 55 
38 61 
38 63 
38 68 
38 71 
38 73 
38 78 
38 87 
38 88 
38 91 
38 93 
38 95 
38 96 
39 40 
39 41 
39 42 
39 48 
39 50 
39 56 
39 57 
39 60 
39 65 
39 70 
39 74 
39 79 
39 81 
39 86 
39 88 
39 89 
39 90 
39 91 
39 95 
40 41 
40 42 
40 49 
40 57 
40 59 
40 62 
40 64 
40 67 
40 69 
40 75 
40 78 
40 79 
40 83 
40 89 
40 92 
40 95 
40 99 
40 100 
41 42 
41 46 
41 50 
41 56 
41 58 
41 64 
41 68 
41 69 
41 74 
41 76 
41 80 
41 84 
41 86 
41 87 
41 92 
41 94 
41 96 
41 100 
42 43 
42 47 
42 53 
42 66 
42 70 
42 73 
42 77 
42 80 
42 83 
42 85 
42 90 
42 91 
42 92 
42 93 
42 94 
42 97 
42 100 
43 44 
43 45 
43 46 
43 47 
43 48 
43 49 
43 50 
43 51 
43 52 
43 53 
43 54 
43 55 
43 56 
43 57 
43 58 
43 59 
43 70 
43 73 
43 85 
43 90 
43 92 
43 93 
43 94 
44 45 
44 46 
44 47 
44 48 
44 49 
44 50 
44 51 
44 52 
44 55 
44 60 
44 61 
44 62 
44 63 
44 64 
44 65 
44 66 
44 76 
44 81 
44 89 
44 93 
44 97 
44 98 
45 46 
45 47 
45 48 
45 49 
45 50 
45 51 
45 53 
45 54 
45 60 
45 62 
45 67 
45 68 
45 69 
45 70 
45 71 
45 72 
45 83 
45 84 
45 85 
45 86 
46 47 
46 48 
46 49 
46 50 
46 51 
46 56 
46 61 
46 64 
46 68 
46 72 
46 76 
46 78 
46 79 
46 80 
46 81 
46 82 
46 86 
46 94 
46 96 
46 100 
47 48 
47 49 
47 50 
47 51 
47 53 
47 55 
47 63 
47 66 
47 68 
47 73 
47 77 
47 78 
47 80 
47 83 
47 87 
47 88 
47 91 
47 97 
47 100 
48 49 
48 50 
48 51 
48 56 
48 58 
48 60 
48 63 
48 74 
48 79 
48 82 
48 85 
48 89 
48 90 
48 91 
48 96 
48 97 
48 99 
49 50 
49 51 
49 57 
49 59 
49 64 
49 65 
49 69 
49 71 
49 75 
49 77 
49 78 
49 82 
49 83 
49 87 
49 89 
49 94 
49 98 
50 51 
50 57 
50 58 
50 65 
50 69 
50 70 
50 74 
50 80 
50 81 
50 84 
50 86 
50 87 
50 88 
50 92 
50 95 
51 54 
51 61 
51 66 
51 71 
51 75 
51 84 
51 88 
51 90 
51 91 
51 93 
51 95 
51 96 
51 98 
51 99 
52 53 
52 54 
52 55 
52 56 
52 57 
52 58 
52 59 
52 60 
52 61 
52 62 
52 63 
52 64 
52 65 
52 66 
52 67 
52 72 
52 73 
52 74 
52 75 
52 76 
52 77 
53 54 
53 55 
53 56 
53 57 
53 58 
53 59 
53 60 
53 66 
53 67 
53 68 
53 69 
53 70 
53 71 
53 77 
53 80 
53 83 
53 91 
53 97 
53 100 
54 55 
54 56 
54 57 
54 58 
54 59 
54 61 
54 62 
54 71 
54 72 
54 83 
54 84 
54 85 
54 86 
54 91 
54 93 
54 95 
54 96 
55 56 
55 57 
55 58 
55 59 
55 63 
55 68 
55 73 
55 76 
55 78 
55 81 
55 87 
55 88 
55 89 
55 93 
55 97 
55 98 
56 57 
56 58 
56 59 
56 60 
56 64 
56 68 
56 74 
56 76 
56 79 
56 86 
56 89 
56 90 
56 91 
56 94 
56 96 
56 100 
57 58 
57 59 
57 64 
57 65 
57 69 
57 70 
57 75 
57 78 
57 81 
57 83 
57 86 
57 88 
57 89 
57 95 
58 59 
58 63 
58 69 
58 74 
58 80 
58 82 
58 84 
58 85 
58 87 
58 92 
58 96 
58 97 
58 99 
59 62 
59 65 
59 67 
59 71 
59 77 
59 79 
59 82 
59 87 
59 92 
59 94 
59 95 
59 98 
59 99 
59 100 
60 61 
60 62 
60 63 
60 64 
60 65 
60 66 
60 67 
60 68 
60 69 
60 70 
60 71 
60 74 
60 79 
60 89 
60 90 
60 91 
61 62 
61 63 
61 64 
61 65 
61 66 
61 71 
61 72 
61 78 
61 79 
61 80 
61 81 
61 82 
61 91 
61 93 
61 95 
61 96 
62 63 
62 64 
62 65 
62 66 
62 67 
62 72 
62 79 
62 83 
62 84 
62 85 
62 86 
62 92 
62 95 
62 99 
62 100 
63 64 
63 65 
63 66 
63 68 
63 73 
63 78 
63 82 
63 85 
63 87 
63 88 
63 96 
63 97 
63 99 
64 65 
64 66 
64 68 
64 69 
64 75 
64 76 
64 78 
64 83 
64 86 
64 89 
64 94 
64 96 
64 100 
65 66 
65 70 
65 71 
65 77 
65 81 
65 82 
65 86 
65 87 
65 88 
65 94 
65 95 
65 98 
66 75 
66 77 
66 80 
66 83 
66 84 
66 88 
66 90 
66 91 
66 97 
66 98 
66 99 
66 100 
67 68 
67 69 
67 70 
67 71 
67 72 
67 73 
67 74 
67 75 
67 76 
67 77 
67 79 
67 92 
67 95 
67 99 
67 100 
68 69 
68 70 
68 71 
68 73 
68 76 
68 78 
68 86 
68 87 
68 88 
68 94 
68 96 
68 100 
69 70 
69 71 
69 74 
69 75 
69 78 
69 80 
69 83 
69 84 
69 87 
69 89 
69 92 
70 71 
70 73 
70 81 
70 85 
70 86 
70 88 
70 90 
70 92 
70 93 
70 94 
70 95 
71 77 
71 82 
71 87 
71 91 
71 93 
71 94 
71 95 
71 96 
71 98 
72 73 
72 74 
72 75 
72 76 
72 77 
72 78 
72 79 
72 80 
72 81 
72 82 
72 83 
72 84 
72 85 
72 86 
73 74 
73 75 
73 76 
73 77 
73 78 
73 85 
73 87 
73 88 
73 90 
73 92 
73 93 
73 94 
74 75 
74 76 
74 77 
74 79 
74 80 
74 84 
74 87 
74 89 
74 90 
74 91 
74 92 
75 76 
75 77 
75 78 
75 83 
75 84 
75 88 
75 89 
75 90 
75 98 
75 99 
76 77 
76 81 
76 86 
76 89 
76 93 
76 94 
76 96 
76 97 
76 98 
76 100 
77 80 
77 82 
77 83 
77 87 
77 91 
77 94 
77 97 
77 98 
77 100 
78 79 
78 80 
78 81 
78 82 
78 83 
78 87 
78 88 
78 89 
79 80 
79 81 
79 82 
79 89 
79 90 
79 91 
79 92 
79 95 
79 99 
79 100 
80 81 
80 82 
80 83 
80 84 
80 87 
80 91 
80 92 
80 97 
80 100 
81 82 
81 86 
81 88 
81 89 
81 93 
81 95 
81 97 
81 98 
82 85 
82 87 
82 94 
82 96 
82 97 
82 98 
82 99 
83 84 
83 85 
83 86 
83 89 
83 91 
83 97 
83 100 
84 85 
84 86 
84 87 
84 88 
84 90 
84 92 
84 98 
84 99 
85 86 
85 90 
85 92 
85 93 
85 94 
85 96 
85 97 
85 99 
86 88 
86 94 
86 95 
86 96 
86 100 
87 88 
87 92 
87 94 
87 98 
88 90 
88 95 
88 98 
88 99 
89 90 
89 91 
89 93 
89 97 
89 98 
90 91 
90 92 
90 93 
90 94 
90 98 
90 99 
91 93 
91 95 
91 96 
91 97 
91 100 
92 93 
92 94 
92 95 
92 99 
92 100 
93 94 
93 95 
93 96 
93 97 
93 98 
94 96 
94 98 
94 100 
95 96 
95 99 
95 100 
96 97 
96 99 
96 100 
97 98 
97 99 
97 100 
98 99 
99 100 
